9
-1 9 20 95 10 37 55 12 82 
49 -1 34 2 50 43 78 56 34 
69 26 -1 6 12 61 30 56 76 
38 29 37 -1 88 25 81 30 9 
80 45 4 12 -1 0 61 36 79 
81 80 95 8 83 -1 9 79 10 
13 30 75 52 43 93 -1 37 43 
20 72 92 48 52 45 61 -1 58 
13 29 64 2 56 15 46 87 -1 
